p wcnf 120 1400
9 -117 119 0
1 -112 -119 0
5 -109 114 0
1 -108 -120 0
4 -108 -118 0
8 -106 -118 0
3 -105 -114 0
7 -105 -112 0
5 -105 113 0
7 -104 -118 0
10 -103 115 0
7 -102 -111 0
9 -102 104 0
9 -101 -118 0
6 -100 -103 0
2 -98 -105 0
4 -98 116 0
9 -97 -114 0
5 -97 -107 0
8 -97 115 0
4 -96 -108 0
8 -96 -106 0
8 -96 105 0
7 -95 -101 0
6 -95 -98 0
8 -95 116 0
1 -95 120 0
8 -94 -103 0
1 -94 97 0
5 -94 120 0
6 -93 -114 0
9 -92 95 0
5 -92 99 0
1 -92 112 0
10 -92 117 0
8 -91 -117 0
8 -91 -108 0
3 -90 -99 0
5 -90 111 0
4 -88 -112 0
9 -88 -103 0
5 -87 -119 0
10 -87 -92 0
8 -87 95 0
4 -87 98 0
5 -87 108 0
9 -86 -110 0
7 -86 -94 0
4 -86 106 0
4 -84 -98 0
5 -84 -94 0
7 -84 -89 0
2 -84 90 0
3 -84 105 0
4 -84 108 0
7 -83 -108 0
1 -83 -104 0
5 -83 -97 0
5 -82 -120 0
2 -81 109 0
8 -80 97 0
1 -79 -114 0
1 -79 -111 0
3 -79 120 0
1 -78 90 0
10 -77 102 0
1 -76 -117 0
9 -76 -77 0
3 -75 -115 0
5 -75 -111 0
2 -75 -103 0
1 -75 -85 0
9 -75 89 0
2 -75 98 0
8 -74 100 0
2 -73 -84 0
6 -73 -77 0
7 -72 82 0
8 -72 86 0
9 -72 89 0
9 -72 110 0
3 -71 76 0
6 -71 110 0
1 -71 114 0
6 -70 -104 0
10 -70 -100 0
8 -70 -95 0
6 -70 -94 0
5 -70 -91 0
3 -70 -72 0
7 -70 97 0
3 -70 104 0
3 -70 108 0
7 -70 112 0
5 -70 114 0
3 -69 -100 0
7 -69 -74 0
5 -69 91 0
2 -69 106 0
8 -68 -116 0
9 -68 -94 0
3 -68 -91 0
8 -68 -81 0
8 -68 90 0
4 -68 119 0
6 -68 120 0
9 -67 -102 0
10 -67 -88 0
3 -66 -111 0
7 -66 -88 0
9 -66 -76 0
2 -66 -70 0
9 -66 70 0
6 -66 105 0
3 -65 70 0
5 -64 -101 0
5 -64 -99 0
9 -64 -95 0
10 -64 -83 0
9 -64 68 0
2 -64 71 0
7 -64 79 0
2 -64 84 0
4 -64 97 0
3 -63 -118 0
6 -63 -114 0
6 -63 -98 0
9 -63 96 0
10 -63 99 0
7 -62 -104 0
7 -62 -93 0
9 -62 -68 0
9 -62 -66 0
5 -62 71 0
6 -62 91 0
3 -62 100 0
1 -62 101 0
5 -62 102 0
3 -61 67 0
3 -61 74 0
2 -61 77 0
2 -61 91 0
5 -61 95 0
10 -61 104 0
6 -60 -81 0
6 -60 -78 0
5 -60 81 0
2 -60 110 0
6 -59 -85 0
5 -59 -84 0
10 -59 -70 0
6 -59 63 0
1 -58 -101 0
1 -58 -71 0
9 -58 67 0
4 -58 77 0
6 -58 113 0
5 -58 117 0
3 -58 118 0
5 -57 -105 0
1 -57 -75 0
9 -57 -71 0
4 -57 -64 0
9 -57 61 0
4 -57 75 0
9 -57 102 0
2 -57 110 0
4 -56 -119 0
4 -56 -91 0
4 -56 72 0
7 -56 89 0
4 -56 92 0
5 -55 -114 0
1 -55 -95 0
4 -55 -92 0
1 -55 -65 0
6 -55 102 0
8 -55 111 0
2 -55 112 0
2 -54 -95 0
3 -54 -90 0
2 -54 -88 0
7 -54 -72 0
3 -54 -70 0
2 -54 -64 0
6 -54 -59 0
6 -54 64 0
7 -54 103 0
10 -53 -98 0
7 -53 -70 0
2 -53 -59 0
10 -53 102 0
6 -52 -97 0
5 -52 -71 0
9 -51 -111 0
9 -51 -107 0
4 -51 -91 0
10 -51 59 0
3 -51 68 0
7 -51 72 0
3 -51 75 0
8 -51 89 0
1 -51 115 0
7 -50 -102 0
9 -50 -94 0
4 -50 -87 0
7 -50 -73 0
5 -50 102 0
2 -50 113 0
8 -49 -93 0
6 -49 -92 0
4 -49 -80 0
9 -49 87 0
3 -48 -106 0
6 -48 -92 0
10 -48 -91 0
8 -48 -82 0
2 -48 -62 0
6 -48 60 0
8 -48 64 0
8 -48 111 0
8 -48 113 0
8 -47 -116 0
4 -47 -77 0
3 -47 58 0
6 -47 72 0
3 -47 85 0
6 -47 106 0
6 -47 108 0
4 -46 -103 0
2 -46 -89 0
8 -46 -80 0
3 -46 -78 0
3 -46 -75 0
5 -46 -72 0
1 -46 57 0
6 -46 65 0
3 -45 -76 0
5 -45 67 0
8 -45 72 0
1 -45 88 0
1 -45 99 0
2 -44 -108 0
9 -44 -104 0
3 -44 -88 0
7 -44 -80 0
9 -44 49 0
2 -44 61 0
8 -44 67 0
5 -44 77 0
9 -44 97 0
6 -44 108 0
3 -43 -119 0
6 -43 -109 0
9 -43 -86 0
4 -43 -54 0
3 -43 62 0
2 -43 70 0
9 -43 74 0
8 -43 105 0
5 -42 -105 0
1 -42 -92 0
6 -42 -80 0
7 -42 -51 0
3 -42 74 0
2 -42 110 0
7 -41 -114 0
8 -41 -81 0
3 -41 -62 0
3 -41 70 0
5 -41 74 0
4 -41 80 0
3 -41 106 0
6 -40 -116 0
3 -40 -98 0
5 -40 -95 0
3 -40 -80 0
1 -40 -76 0
6 -40 -57 0
10 -40 -56 0
5 -40 -45 0
4 -40 41 0
6 -40 70 0
7 -40 89 0
10 -40 102 0
5 -40 106 0
1 -39 -110 0
3 -39 -108 0
5 -39 -98 0
9 -39 -93 0
10 -39 -78 0
9 -39 -76 0
9 -39 -66 0
6 -39 54 0
6 -39 67 0
2 -39 79 0
6 -39 85 0
4 -39 105 0
9 -38 -98 0
9 -38 -67 0
5 -38 -54 0
4 -38 -47 0
2 -37 -114 0
7 -37 -92 0
9 -37 -61 0
4 -37 80 0
3 -37 92 0
2 -37 93 0
4 -37 94 0
7 -36 -101 0
2 -36 -96 0
9 -36 -70 0
2 -36 -60 0
7 -36 -44 0
6 -36 -42 0
2 -36 37 0
1 -36 46 0
6 -36 76 0
4 -36 112 0
6 -35 -109 0
5 -35 -65 0
3 -35 67 0
5 -35 101 0
4 -34 -91 0
8 -34 -74 0
1 -34 40 0
5 -34 55 0
4 -34 72 0
4 -34 75 0
3 -34 80 0
3 -34 88 0
9 -34 106 0
6 -33 -94 0
4 -33 -64 0
6 -33 -58 0
6 -33 -54 0
7 -33 -53 0
8 -33 -46 0
7 -33 43 0
10 -33 60 0
5 -33 77 0
8 -33 83 0
8 -33 101 0
6 -33 104 0
5 -33 112 0
4 -32 -94 0
7 -32 -90 0
5 -32 -89 0
9 -32 -84 0
9 -32 -67 0
10 -32 -37 0
3 -32 34 0
3 -32 37 0
5 -32 38 0
6 -32 64 0
9 -32 88 0
5 -31 -60 0
10 -31 -53 0
3 -31 -48 0
8 -31 35 0
3 -31 38 0
5 -31 45 0
7 -31 63 0
8 -31 86 0
8 -31 93 0
3 -30 -110 0
4 -30 -109 0
5 -30 -91 0
9 -30 -71 0
1 -30 -69 0
5 -30 -64 0
4 -30 -35 0
8 -30 48 0
3 -30 73 0
9 -30 82 0
3 -29 -90 0
6 -29 -78 0
6 -29 -73 0
7 -29 -60 0
5 -29 -49 0
6 -29 44 0
7 -29 85 0
7 -28 -107 0
7 -28 -106 0
2 -28 -101 0
3 -28 -53 0
7 -28 35 0
6 -28 49 0
3 -28 56 0
9 -28 57 0
5 -28 68 0
5 -28 92 0
4 -28 97 0
2 -28 105 0
4 -28 115 0
2 -27 -117 0
4 -27 -107 0
7 -27 -87 0
6 -27 -67 0
3 -27 -34 0
7 -27 -30 0
9 -27 76 0
7 -26 -101 0
5 -26 -60 0
2 -26 -50 0
6 -26 -46 0
7 -26 -44 0
7 -26 -43 0
2 -26 40 0
5 -26 42 0
2 -26 71 0
7 -26 74 0
2 -26 81 0
8 -26 83 0
4 -26 88 0
3 -25 -92 0
2 -25 -47 0
10 -25 -38 0
8 -25 27 0
4 -25 61 0
9 -25 69 0
3 -25 70 0
8 -25 95 0
3 -25 115 0
4 -25 119 0
2 -25 120 0
4 -24 -120 0
7 -24 -70 0
8 -24 -48 0
9 -24 -30 0
9 -24 55 0
5 -24 67 0
9 -24 73 0
6 -24 109 0
9 -23 -109 0
1 -23 -102 0
2 -23 -88 0
7 -23 -85 0
8 -23 -53 0
3 -23 -52 0
1 -23 29 0
9 -23 44 0
9 -23 67 0
2 -23 84 0
7 -23 117 0
3 -22 -99 0
4 -22 -84 0
8 -22 -60 0
3 -22 -36 0
2 -22 -25 0
2 -22 41 0
2 -22 43 0
4 -22 47 0
9 -22 60 0
4 -22 80 0
7 -22 88 0
1 -22 91 0
7 -22 92 0
4 -22 95 0
8 -22 109 0
6 -21 -59 0
4 -21 38 0
3 -21 56 0
5 -21 69 0
8 -21 78 0
2 -21 93 0
5 -20 -119 0
10 -20 -112 0
8 -20 -99 0
3 -20 -97 0
3 -20 -64 0
8 -20 24 0
2 -20 65 0
2 -20 72 0
9 -20 88 0
8 -19 -105 0
4 -19 -83 0
3 -19 -78 0
6 -19 -55 0
6 -19 -29 0
4 -19 26 0
7 -19 33 0
6 -19 43 0
7 -19 62 0
7 -19 80 0
9 -18 -115 0
4 -18 -92 0
7 -18 -81 0
6 -18 -76 0
8 -18 -60 0
5 -18 -50 0
2 -18 -35 0
1 -18 -34 0
7 -18 -25 0
6 -18 27 0
9 -18 117 0
8 -17 -118 0
2 -17 -113 0
8 -17 -46 0
5 -17 -26 0
3 -17 23 0
1 -17 24 0
3 -17 52 0
4 -17 62 0
2 -16 -88 0
2 -16 -33 0
2 -16 -31 0
5 -16 25 0
3 -16 60 0
7 -16 62 0
10 -16 88 0
6 -16 102 0
4 -16 103 0
6 -16 114 0
3 -15 -112 0
9 -15 -104 0
5 -15 -84 0
6 -15 -83 0
6 -15 -72 0
1 -15 -39 0
4 -15 -37 0
1 -15 -28 0
3 -15 -19 0
4 -15 39 0
7 -15 45 0
8 -14 -120 0
2 -14 -109 0
4 -14 -100 0
9 -14 -90 0
10 -14 -86 0
8 -14 -82 0
2 -14 -69 0
10 -14 -34 0
1 -14 16 0
5 -14 24 0
2 -14 27 0
2 -14 40 0
6 -14 47 0
5 -14 67 0
4 -14 85 0
2 -14 90 0
5 -14 98 0
9 -13 -101 0
5 -13 -96 0
1 -13 -92 0
1 -13 -91 0
5 -13 -86 0
6 -13 -50 0
6 -13 -36 0
1 -13 -16 0
6 -13 34 0
9 -13 44 0
1 -13 107 0
8 -13 112 0
3 -13 118 0
7 -12 -110 0
6 -12 -103 0
5 -12 -94 0
1 -12 -92 0
5 -12 -32 0
4 -12 -22 0
8 -12 35 0
6 -12 55 0
4 -12 65 0
9 -11 -109 0
1 -11 -55 0
4 -11 -28 0
9 -11 95 0
6 -11 97 0
9 -10 -97 0
3 -10 -58 0
8 -10 -55 0
4 -10 -50 0
1 -10 -38 0
3 -10 -37 0
4 -10 -11 0
2 -10 25 0
7 -10 34 0
9 -10 41 0
7 -10 49 0
7 -10 60 0
5 -10 68 0
6 -10 74 0
7 -9 -120 0
3 -9 -118 0
8 -9 -111 0
4 -9 -71 0
9 -9 -61 0
3 -9 -41 0
4 -9 -33 0
4 -9 -28 0
6 -9 25 0
3 -9 33 0
10 -9 38 0
9 -9 44 0
1 -9 51 0
10 -9 54 0
3 -8 -114 0
10 -8 -108 0
6 -8 -95 0
2 -8 -38 0
3 -8 -32 0
4 -8 -25 0
5 -8 -11 0
3 -8 35 0
6 -8 73 0
9 -8 101 0
4 -8 118 0
2 -7 -68 0
8 -7 -64 0
10 -7 -53 0
8 -7 9 0
3 -7 58 0
6 -7 60 0
5 -7 97 0
6 -7 110 0
5 -7 118 0
8 -6 -67 0
5 -6 -63 0
7 -6 -51 0
3 -6 -32 0
8 -6 7 0
3 -6 18 0
4 -6 39 0
7 -6 65 0
2 -6 105 0
5 -5 -115 0
7 -5 -108 0
4 -5 -88 0
4 -5 -72 0
3 -5 -59 0
6 -5 -55 0
6 -5 -42 0
6 -5 -22 0
1 -5 15 0
8 -5 20 0
1 -5 29 0
9 -5 89 0
1 -5 105 0
3 -5 112 0
7 -5 119 0
1 -4 -110 0
10 -4 -92 0
9 -4 -87 0
7 -4 -82 0
5 -4 -73 0
5 -4 -65 0
1 -4 -51 0
4 -4 -46 0
9 -4 -5 0
7 -4 8 0
5 -4 22 0
6 -4 51 0
9 -4 67 0
8 -4 74 0
4 -4 76 0
10 -4 85 0
3 -4 99 0
10 -4 102 0
4 -4 120 0
6 -3 -116 0
3 -3 -104 0
9 -3 -90 0
2 -3 -88 0
8 -3 -57 0
9 -3 -50 0
8 -3 -22 0
8 -3 -7 0
8 -3 -4 0
9 -3 4 0
1 -3 6 0
5 -3 7 0
9 -3 8 0
1 -3 26 0
5 -3 35 0
6 -3 50 0
5 -3 79 0
9 -3 105 0
6 -3 111 0
8 -3 112 0
7 -2 -118 0
3 -2 -79 0
3 -2 -58 0
4 -2 -55 0
2 -2 -54 0
1 -2 -34 0
6 -2 -25 0
2 -2 15 0
3 -2 34 0
6 -2 52 0
5 -2 55 0
8 -2 82 0
8 -2 90 0
4 -2 105 0
9 -1 -94 0
6 -1 -91 0
3 -1 -81 0
8 -1 -69 0
4 -1 -21 0
10 -1 -20 0
6 -1 -5 0
4 -1 115 0
5 1 -87 0
5 1 -65 0
4 1 -63 0
9 1 -44 0
10 1 -34 0
9 1 -24 0
7 1 -13 0
6 1 12 0
6 1 15 0
5 1 38 0
8 1 56 0
8 2 -118 0
8 2 -68 0
9 2 -58 0
8 2 -55 0
4 2 -47 0
9 2 17 0
2 2 31 0
9 2 32 0
4 2 49 0
9 2 52 0
7 2 56 0
7 2 61 0
8 2 68 0
3 2 70 0
9 2 97 0
6 2 119 0
6 3 -116 0
9 3 -98 0
2 3 -92 0
9 3 -83 0
4 3 -73 0
6 3 -38 0
4 3 -33 0
2 3 17 0
6 3 32 0
2 3 61 0
8 3 67 0
2 3 88 0
8 3 110 0
3 3 114 0
9 4 -94 0
6 4 -81 0
10 4 -73 0
8 4 -61 0
4 4 -50 0
4 4 -38 0
7 4 26 0
5 4 37 0
2 4 43 0
2 4 50 0
4 4 58 0
8 4 66 0
8 4 68 0
2 4 86 0
10 4 97 0
7 5 -99 0
7 5 -98 0
6 5 -71 0
5 5 -58 0
8 5 -41 0
5 5 31 0
8 5 64 0
4 5 71 0
8 5 89 0
9 5 113 0
10 6 -45 0
9 6 -43 0
7 6 -42 0
2 6 -34 0
7 6 -16 0
10 6 9 0
10 6 34 0
3 6 55 0
9 6 64 0
8 6 66 0
6 6 99 0
3 6 116 0
5 7 -97 0
1 7 -72 0
4 7 -49 0
6 7 -47 0
4 7 -28 0
2 7 18 0
4 7 30 0
5 7 33 0
2 7 78 0
9 7 83 0
2 7 90 0
7 7 92 0
5 7 99 0
10 7 102 0
2 7 108 0
3 8 -82 0
4 8 -81 0
9 8 -57 0
2 8 -55 0
4 8 -50 0
8 8 -17 0
8 8 -11 0
5 8 13 0
4 8 21 0
8 8 46 0
5 8 49 0
6 8 58 0
7 9 -112 0
2 9 -111 0
2 9 -54 0
9 9 -43 0
6 9 -27 0
2 9 42 0
4 9 71 0
2 9 74 0
5 10 -78 0
5 10 -67 0
5 10 -44 0
10 10 -14 0
6 10 13 0
4 10 66 0
2 10 71 0
3 10 83 0
8 10 103 0
2 10 112 0
3 11 -28 0
10 11 41 0
5 11 49 0
2 11 77 0
1 11 88 0
7 11 119 0
9 12 -115 0
9 12 -84 0
2 12 -74 0
3 12 -63 0
7 12 -30 0
6 12 32 0
8 12 54 0
4 12 56 0
7 12 64 0
9 12 89 0
3 12 102 0
3 12 111 0
1 12 118 0
6 13 -119 0
5 13 -107 0
6 13 -91 0
9 13 -89 0
8 13 -84 0
5 13 -78 0
5 13 -74 0
3 13 -69 0
6 13 -64 0
7 13 -46 0
10 13 -43 0
7 13 40 0
9 13 113 0
9 13 120 0
2 14 -100 0
1 14 -72 0
10 14 -68 0
8 14 -16 0
9 14 56 0
8 14 98 0
9 14 102 0
2 14 118 0
5 15 -81 0
5 15 -74 0
9 15 -66 0
8 15 -30 0
2 15 -18 0
9 15 35 0
10 15 51 0
4 15 58 0
9 15 69 0
5 15 70 0
7 15 93 0
5 15 104 0
5 16 -74 0
6 16 -46 0
9 16 -26 0
9 16 -22 0
7 16 42 0
5 16 81 0
6 16 89 0
7 16 110 0
2 16 112 0
6 17 -77 0
6 17 -67 0
3 17 -42 0
6 17 -30 0
6 17 23 0
1 17 25 0
5 17 42 0
4 17 57 0
9 18 -94 0
6 18 -79 0
8 18 -64 0
4 18 -36 0
5 18 49 0
6 18 99 0
5 18 103 0
4 18 116 0
5 19 -119 0
7 19 -109 0
3 19 67 0
10 19 88 0
5 19 94 0
7 20 -89 0
5 20 -79 0
10 20 -68 0
6 20 -67 0
4 20 -42 0
7 20 -29 0
10 20 -28 0
9 20 21 0
4 20 27 0
2 20 36 0
5 20 37 0
9 20 58 0
4 20 73 0
1 20 74 0
5 20 85 0
5 21 -97 0
5 21 -88 0
9 21 -87 0
4 21 -84 0
1 21 -61 0
7 21 -58 0
7 21 -54 0
6 21 -46 0
2 21 26 0
2 21 44 0
8 21 57 0
7 21 64 0
8 21 76 0
1 21 86 0
7 22 -120 0
3 22 -82 0
7 22 -65 0
2 22 -49 0
3 22 -48 0
2 22 -29 0
5 22 77 0
9 22 95 0
2 22 115 0
4 23 -120 0
3 23 -95 0
4 23 -86 0
8 23 -60 0
2 23 56 0
7 23 62 0
8 23 79 0
7 23 80 0
1 24 -110 0
3 24 -102 0
5 24 -35 0
4 24 -26 0
4 24 31 0
2 24 40 0
1 24 43 0
8 24 55 0
4 24 56 0
2 24 57 0
7 24 61 0
9 24 79 0
9 24 82 0
7 24 109 0
6 25 -57 0
2 25 -45 0
4 25 -43 0
7 25 -38 0
3 25 26 0
5 25 27 0
2 25 48 0
2 25 50 0
7 25 60 0
5 25 61 0
4 25 75 0
9 25 88 0
3 25 114 0
5 26 -107 0
6 26 -87 0
10 26 -82 0
1 26 -62 0
6 26 35 0
3 26 53 0
6 26 57 0
10 26 73 0
5 26 114 0
7 26 118 0
10 26 120 0
3 27 -116 0
9 27 -100 0
2 27 -81 0
9 27 -59 0
9 27 -30 0
9 27 44 0
6 27 64 0
5 27 91 0
10 27 103 0
9 27 112 0
2 28 -117 0
3 28 -91 0
4 28 -86 0
3 28 -74 0
4 28 72 0
10 28 80 0
6 28 86 0
6 28 95 0
9 28 99 0
8 29 -117 0
1 29 -98 0
5 29 -52 0
7 29 -36 0
2 29 52 0
1 29 54 0
9 29 56 0
7 29 62 0
1 29 74 0
5 29 99 0
3 29 101 0
10 29 111 0
7 30 -119 0
3 30 -107 0
2 30 -98 0
6 30 -82 0
2 30 -64 0
10 30 -60 0
2 30 -43 0
6 30 -42 0
10 30 -38 0
10 30 50 0
7 30 111 0
3 31 -112 0
4 31 -55 0
9 31 -44 0
6 31 -42 0
4 31 92 0
5 32 -112 0
2 32 -69 0
3 32 52 0
3 32 66 0
2 32 110 0
7 33 -104 0
9 33 -51 0
3 33 35 0
7 33 93 0
9 34 -119 0
9 34 -99 0
7 34 -89 0
3 34 -52 0
2 34 67 0
7 35 -115 0
10 35 -109 0
4 35 -107 0
8 35 -100 0
6 35 -78 0
5 35 -77 0
7 35 -70 0
7 35 -68 0
10 35 65 0
7 35 74 0
7 35 109 0
7 36 -93 0
9 36 -85 0
1 36 -37 0
6 36 44 0
5 36 64 0
4 37 -69 0
1 37 -67 0
6 37 -66 0
6 37 -60 0
3 37 -44 0
7 37 41 0
2 37 42 0
2 37 63 0
9 37 68 0
8 37 81 0
1 37 86 0
8 37 115 0
5 38 -107 0
3 38 -98 0
9 38 62 0
2 38 90 0
3 39 -93 0
3 39 -68 0
9 39 -65 0
8 39 54 0
6 39 75 0
6 39 105 0
5 39 119 0
6 40 -101 0
3 40 -55 0
2 40 -46 0
3 40 -43 0
3 40 68 0
2 40 77 0
8 40 90 0
6 40 95 0
5 40 97 0
8 41 -119 0
2 41 -98 0
9 41 69 0
10 41 71 0
9 41 80 0
1 41 84 0
2 41 89 0
8 41 111 0
9 42 -107 0
2 42 -74 0
6 42 -63 0
4 42 51 0
4 42 59 0
4 42 75 0
5 42 82 0
6 43 -93 0
6 43 -82 0
3 43 -81 0
4 43 -78 0
2 43 -74 0
8 43 -67 0
8 43 -57 0
7 43 46 0
1 43 74 0
8 43 100 0
9 43 103 0
3 44 -120 0
9 44 -85 0
7 44 -65 0
8 44 -53 0
4 44 51 0
5 44 99 0
10 45 -113 0
3 45 -94 0
4 45 -88 0
8 45 -87 0
3 45 -85 0
5 45 -74 0
6 45 -54 0
2 45 52 0
6 45 74 0
2 45 81 0
4 46 -85 0
10 46 -80 0
5 46 -75 0
8 46 -71 0
6 46 -56 0
2 46 -47 0
1 46 56 0
10 46 98 0
3 47 -56 0
8 47 86 0
7 47 106 0
10 47 119 0
9 48 -118 0
6 48 -101 0
9 48 -89 0
2 48 -87 0
5 48 -76 0
6 48 57 0
9 48 66 0
7 48 74 0
10 48 81 0
9 48 92 0
9 48 98 0
4 49 -116 0
8 50 -69 0
3 50 -58 0
8 50 62 0
4 50 107 0
3 50 117 0
5 51 -108 0
5 51 -77 0
7 51 -69 0
5 51 -52 0
9 51 59 0
5 51 63 0
1 51 68 0
1 51 69 0
5 51 73 0
10 51 110 0
3 51 113 0
3 51 117 0
7 52 -107 0
3 52 -79 0
2 52 83 0
3 52 116 0
1 53 -102 0
3 53 -81 0
7 53 -75 0
6 53 -56 0
2 53 89 0
4 53 96 0
6 53 113 0
1 54 -113 0
4 54 -64 0
9 54 63 0
8 54 78 0
5 54 99 0
7 54 114 0
2 55 -87 0
8 55 -75 0
2 55 64 0
6 55 69 0
4 55 93 0
6 55 103 0
6 56 -92 0
8 56 110 0
6 56 114 0
6 57 -119 0
3 57 -103 0
6 57 82 0
8 57 92 0
5 57 94 0
3 57 106 0
9 57 114 0
6 57 117 0
5 58 -120 0
10 58 76 0
8 58 84 0
2 58 87 0
6 58 106 0
10 59 -103 0
5 59 -100 0
2 59 -93 0
1 59 -61 0
8 59 61 0
10 59 88 0
8 59 107 0
3 59 117 0
7 59 119 0
9 60 -113 0
9 60 -98 0
8 60 -90 0
6 60 -85 0
4 60 -67 0
4 60 77 0
1 60 105 0
2 60 115 0
8 61 -62 0
6 61 89 0
4 62 -116 0
4 62 72 0
4 62 75 0
8 62 83 0
6 62 92 0
3 62 98 0
5 62 120 0
10 63 -87 0
3 63 -83 0
3 63 93 0
1 63 109 0
8 63 112 0
3 64 -92 0
5 64 -91 0
9 64 -83 0
3 64 85 0
3 64 93 0
9 64 101 0
10 64 120 0
5 65 -106 0
6 65 68 0
9 65 120 0
4 66 -111 0
4 66 -90 0
5 66 -81 0
7 66 100 0
7 67 -107 0
5 67 -104 0
7 68 83 0
5 68 120 0
1 69 -118 0
1 69 -111 0
8 69 -110 0
4 69 -98 0
9 69 -84 0
4 69 -73 0
6 69 84 0
3 69 111 0
4 69 118 0
8 69 119 0
5 70 -92 0
4 70 83 0
6 70 114 0
7 71 -114 0
9 71 -99 0
5 71 -81 0
9 71 80 0
1 71 83 0
5 72 -115 0
9 72 99 0
5 72 106 0
10 72 116 0
8 73 -117 0
8 73 -98 0
4 73 -92 0
3 73 -91 0
4 73 -82 0
1 73 -74 0
7 73 85 0
2 73 113 0
5 74 -99 0
8 74 92 0
2 74 97 0
4 74 104 0
2 75 81 0
10 75 83 0
7 75 88 0
7 75 112 0
3 76 -117 0
2 76 -100 0
5 76 -88 0
8 76 79 0
5 76 82 0
10 76 89 0
5 76 107 0
4 77 -80 0
5 77 93 0
3 77 94 0
4 77 101 0
9 78 85 0
2 78 90 0
8 78 117 0
9 79 -119 0
9 79 -103 0
6 79 -85 0
3 79 80 0
2 80 -97 0
9 80 -85 0
3 80 85 0
8 80 103 0
1 81 -102 0
7 81 -86 0
5 81 90 0
3 81 92 0
1 81 106 0
6 82 -102 0
2 82 101 0
8 82 107 0
3 83 -104 0
5 83 -100 0
8 83 103 0
6 84 -110 0
2 84 -107 0
3 84 93 0
6 84 108 0
6 84 114 0
6 85 109 0
1 86 90 0
8 86 107 0
9 86 114 0
9 87 -90 0
9 87 99 0
7 88 -118 0
8 88 -115 0
7 88 -100 0
3 88 -90 0
10 89 -99 0
8 89 96 0
2 90 -116 0
3 90 93 0
6 90 98 0
3 90 119 0
9 92 -116 0
1 92 103 0
4 92 107 0
9 93 -112 0
6 93 -94 0
6 93 95 0
7 93 113 0
8 94 -120 0
9 94 -105 0
5 94 95 0
4 95 -111 0
2 95 120 0
8 96 120 0
9 98 119 0
6 101 -116 0
3 101 107 0
9 101 108 0
4 101 111 0
2 101 115 0
8 102 110 0
3 103 -110 0
8 104 -114 0
6 104 108 0
10 104 109 0
1 104 110 0
5 104 114 0
8 105 -106 0
3 107 -111 0
7 109 -118 0
3 110 -114 0
4 110 -113 0
6 111 -116 0
4 112 116 0
8 113 118 0
5 116 -118 0
9 117 118 0
